12420.0
[0, 1, 1, 2, 1, 2, 2, 2, 3, 5, 3, 5, 4, 6, 6, 6, 7, 7, 7, 7, 7, 7, 9, 10, 8, 11, 10, 12, 12, 14, 13, 13, 13, 14, 15, 15, 16, 16, 17, 16, 17, 16, 20, 19, 18, 19, 18, 20, 21, 18, 21, 18, 0, 22, 23, 23, 22, 24, 24, 26, 25, 26, 25, 26, 27, 27, 28, 27, 28, 28]